NAME : local_12
TYPE : ATSP
DIMENSION : 5
EDGE_WEIGHT_TYPE : EXPLICIT
EDGE_WEIGHT_FORMAT : FULL_MATRIX
EDGE_WEIGHT_SECTION
0 236 816 693 0 
0 0 10000000 542 236 
0 10000000 0 10000000 816 
0 542 10000000 0 693 
0 10000000 10000000 10000000 0 
EOF